 200 24 
 75 63 64 68 3 73 67 34 16 27 4 79 
 12 20 31 68 35 74 65 56 17 87 14 18 
 
 9 
 2 4 7 17 19 20 22 23 24 
 22 
 1 2 3 4 5 6 7 8 9 11 12 13 
 14 15 16 17 18 19 20 21 22 23 
 11 
 3 4 7 9 11 12 14 15 19 21 23 
 13 
 1 2 3 4 6 11 13 15 17 20 21 22 
 24 
 6 
 2 5 6 7 13 23 
 12 
 4 5 6 7 10 11 13 15 17 20 22 24 
 7 
 1 6 7 9 11 18 21 
 21 
 1 2 3 4 5 6 7 8 9 10 12 13 
 14 15 17 18 19 20 21 22 23 
 5 
 12 16 17 18 24 
 6 
 2 7 10 11 15 18 
 9 
 1 2 5 7 9 11 12 15 19 
 10 
 1 4 6 7 9 12 14 17 18 24 
 9 
 1 2 3 8 11 15 20 22 24 
 9 
 1 2 4 8 9 11 16 17 18 
 7 
 4 7 8 9 16 20 23 
 22 
 2 3 4 5 6 7 8 9 10 11 12 13 
 14 15 16 17 18 19 20 22 23 24 
 16 
 2 4 6 10 11 12 13 15 16 17 18 19 
 20 21 22 23 
 24 
 1 2 3 4 5 6 7 8 9 10 11 12 
 13 14 15 16 17 18 19 20 21 22 23 24 
 12 
 1 3 4 5 7 10 11 14 16 19 23 24 
 24 
 1 2 3 4 5 6 7 8 9 10 11 12 
 13 14 15 16 17 18 19 20 21 22 23 24 
 7 
 10 12 15 17 18 19 22 
 16 
 1 2 3 5 6 8 9 11 13 16 17 18 
 19 20 21 24 
 15 
 2 4 5 7 8 10 11 15 16 19 20 21 
 22 23 24 
 17 
 1 2 3 4 7 8 9 10 13 14 15 16 
 17 18 21 22 23 
 22 
 1 2 3 4 5 6 7 8 9 10 11 12 
 13 15 16 17 18 19 20 21 22 23 
 23 
 1 2 3 4 5 6 7 8 10 11 12 13 
 14 15 16 17 18 19 20 21 22 23 24 
 17 
 2 3 4 5 6 9 10 11 12 13 14 15 
 16 18 19 20 23 
 16 
 1 3 5 8 9 10 11 12 16 17 19 20 
 21 22 23 24 
 4 
 2 13 16 24 
 19 
 1 2 3 4 8 9 11 12 13 14 15 16 
 17 18 19 21 22 23 24 
 15 
 1 2 6 7 9 11 12 13 15 16 18 20 
 22 23 24 
 12 
 1 2 7 13 14 15 16 17 18 20 21 22 
 24 
 1 2 3 4 5 6 7 8 9 10 11 12 
 13 14 15 16 17 18 19 20 21 22 23 24 
 23 
 1 2 3 4 5 6 7 8 9 10 11 12 
 13 14 15 16 17 18 19 20 21 22 24 
 16 
 1 2 3 4 5 6 7 10 12 13 14 16 
 19 20 23 24 
 24 
 1 2 3 4 5 6 7 8 9 10 11 12 
 13 14 15 16 17 18 19 20 21 22 23 24 
 17 
 1 3 4 5 7 8 10 11 12 14 15 16 
 19 20 21 23 24 
 23 
 1 2 3 4 5 6 7 8 9 10 11 12 
 13 14 15 16 17 18 19 20 21 23 24 
 12 
 3 4 5 6 7 8 10 16 17 19 20 23 
 8 
 2 6 7 9 17 19 20 22 
 10 
 1 4 7 11 12 13 16 19 21 23 
 11 
 5 6 7 11 12 13 14 16 17 20 22 
 8 
 1 2 3 4 5 15 16 19 
 3 
 1 9 12 
 5 
 2 7 15 21 23 
 3 
 2 6 17 
 12 
 1 3 5 7 8 10 14 15 19 22 23 24 
 16 
 3 4 5 7 8 9 10 11 12 13 16 17 
 18 19 22 24 
 11 
 1 3 4 6 7 9 13 14 16 23 24 
 19 
 1 2 3 5 6 7 8 9 10 12 13 14 
 16 17 18 19 20 22 24 
 2 
 10 16 
 18 
 1 3 4 5 6 8 9 10 12 14 15 16 
 17 18 20 22 23 24 
 9 
 1 4 6 7 9 13 17 19 21 
 7 
 1 6 11 13 17 21 23 
 14 
 1 2 3 4 6 12 13 16 17 18 19 21 
 22 24 
 20 
 1 2 3 5 6 7 8 9 10 11 12 13 
 14 16 17 19 20 22 23 24 
 9 
 6 8 9 10 14 15 18 20 23 
 4 
 10 11 13 15 
 4 
 7 9 12 24 
 12 
 3 4 8 10 14 15 16 18 19 20 22 24 
 4 
 4 8 14 22 
 2 
 5 6 
 19 
 2 3 5 6 7 8 9 10 11 13 14 15 
 16 17 19 20 21 23 24 
 17 
 1 3 4 5 8 9 10 11 12 13 15 19 
 20 21 22 23 24 
 18 
 3 6 7 8 9 10 11 12 13 15 16 17 
 18 19 21 22 23 24 
 22 
 1 2 3 4 5 7 8 9 10 11 12 13 
 14 15 16 17 19 20 21 22 23 24 
 10 
 1 2 5 6 7 16 17 19 21 23 
 2 
 16 22 
 10 
 1 2 5 6 7 8 12 18 19 22 
 5 
 1 4 9 11 16 
 13 
 3 5 6 7 8 9 10 12 13 14 21 22 
 24 
 17 
 3 4 5 6 7 8 10 11 12 13 15 16 
 17 18 19 22 24 
 19 
 1 2 3 4 5 7 8 10 12 14 15 17 
 18 19 20 21 22 23 24 
 22 
 2 4 5 6 7 8 9 10 11 12 13 14 
 15 16 17 18 19 20 21 22 23 24 
 20 
 1 2 4 5 6 8 9 11 12 14 15 16 
 17 18 19 20 21 22 23 24 
 15 
 5 7 8 9 11 13 14 15 16 17 18 20 
 21 23 24 
 5 
 3 13 16 22 23 
 9 
 1 3 5 7 12 17 19 21 24 
 15 
 1 3 4 5 6 7 8 9 10 11 12 15 
 16 20 24 
 21 
 1 2 3 4 6 8 9 10 11 12 13 14 
 16 17 18 19 20 21 22 23 24 
 21 
 1 3 4 5 6 7 8 9 10 11 12 13 
 15 16 17 18 19 21 22 23 24 
 3 
 5 17 19 
 17 
 1 3 4 5 6 7 10 11 12 13 14 15 
 16 17 19 22 23 
 10 
 1 4 5 8 12 13 15 17 21 22 
 4 
 3 6 8 11 
 11 
 3 4 6 8 9 13 16 18 20 22 23 
 13 
 1 2 4 5 6 7 8 11 12 14 16 19 
 21 
 8 
 3 4 10 12 15 17 22 24 
 10 
 4 8 9 10 12 13 15 21 22 23 
 16 
 2 3 4 5 6 8 10 13 16 17 19 20 
 21 22 23 24 
 23 
 1 2 3 4 5 6 7 9 10 11 12 13 
 14 15 16 17 18 19 20 21 22 23 24 
 8 
 6 7 9 11 12 15 21 23 
 8 
 4 7 9 10 14 20 21 23 
 18 
 2 3 4 5 7 8 11 12 13 14 15 16 
 17 19 20 22 23 24 
 14 
 3 4 5 6 7 8 9 11 14 16 17 20 
 21 22 
 18 
 1 2 4 5 8 9 10 11 12 14 15 16 
 17 19 20 21 22 23 
 23 
 1 2 3 4 5 6 7 8 9 10 11 12 
 13 14 15 16 17 18 19 20 21 23 24 
 16 
 1 2 3 4 5 6 10 12 13 14 17 18 
 19 20 21 22 
 11 
 7 9 12 14 15 16 17 18 22 23 24 
 14 
 1 2 3 5 7 9 11 12 16 18 19 20 
 23 24 
 8 
 2 3 5 9 12 16 20 22 
 7 
 1 5 7 13 17 19 22 
 2 
 14 17 
 14 
 1 2 5 9 11 12 14 15 16 17 20 22 
 23 24 
 20 
 1 3 4 5 7 8 9 10 12 13 14 16 
 17 18 19 20 21 22 23 24 
 15 
 1 2 4 5 8 10 11 12 16 17 18 19 
 21 22 23 
 11 
 1 2 4 6 7 8 11 13 17 19 20 
 19 
 2 3 5 6 7 8 9 11 12 14 15 17 
 18 19 20 21 22 23 24 
 21 
 1 3 4 5 6 7 8 9 10 11 12 13 
 14 15 16 17 18 19 21 22 23 
 24 
 1 2 3 4 5 6 7 8 9 10 11 12 
 13 14 15 16 17 18 19 20 21 22 23 24 
 14 
 1 2 3 4 5 11 13 15 16 17 19 20 
 22 24 
 11 
 3 4 5 7 8 11 13 15 19 20 24 
 11 
 1 2 3 4 12 13 15 16 17 20 24 
 12 
 4 5 6 10 11 12 13 16 19 21 23 24 
 15 
 1 2 3 7 8 9 10 11 14 15 16 17 
 19 22 24 
 9 
 3 4 7 9 11 16 18 19 22 
 19 
 2 4 6 7 8 9 10 11 12 13 14 15 
 17 18 19 21 22 23 24 
 6 
 3 7 12 14 15 17 
 6 
 1 8 10 16 17 21 
 5 
 6 10 11 14 17 
 18 
 1 4 6 7 9 10 11 12 13 15 16 17 
 18 19 21 22 23 24 
 8 
 3 4 9 11 12 19 22 24 
 21 
 2 3 4 5 6 7 8 9 10 11 12 13 
 14 15 16 18 19 20 22 23 24 
 22 
 1 2 3 4 5 6 7 8 9 10 11 12 
 13 14 15 16 17 18 20 21 23 24 
 21 
 1 3 4 5 7 8 9 10 11 12 13 14 
 15 17 18 19 20 21 22 23 24 
 9 
 2 3 7 10 15 16 20 21 22 
 4 
 1 6 7 20 
 8 
 4 6 8 13 16 18 19 23 
 8 
 10 11 14 15 16 20 22 24 
 3 
 4 15 23 
 12 
 2 4 6 9 12 14 15 17 18 19 23 24 
 21 
 1 3 4 5 6 7 8 9 11 12 13 14 
 16 17 18 19 20 21 22 23 24 
 10 
 3 4 5 8 9 10 12 16 19 24 
 13 
 3 5 7 9 10 11 12 13 15 16 18 22 
 23 
 22 
 1 2 3 4 5 6 7 8 11 12 13 14 
 15 16 17 18 19 20 21 22 23 24 
 3 
 3 11 13 
 6 
 1 4 5 8 10 18 
 4 
 8 9 19 21 
 19 
 1 2 3 4 5 7 9 10 11 12 14 15 
 16 18 19 20 21 23 24 
 13 
 2 3 4 7 8 10 12 14 18 19 20 21 
 23 
 22 
 1 2 3 5 6 7 8 9 10 11 13 14 
 15 16 17 18 19 20 21 22 23 24 
 6 
 7 8 10 15 21 23 
 13 
 4 5 6 8 10 12 13 14 18 20 21 23 
 24 
 11 
 2 3 4 6 11 12 13 14 17 19 20 
 7 
 6 7 10 12 15 22 23 
 2 
 11 23 
 3 
 9 13 21 
 18 
 1 4 5 6 8 9 10 11 12 13 14 15 
 16 17 19 20 21 23 
 11 
 5 7 10 11 12 17 18 19 20 21 23 
 11 
 2 5 6 7 8 9 16 19 20 22 24 
 4 
 3 15 18 22 
 13 
 2 3 4 5 7 14 15 16 17 20 21 22 
 23 
 13 
 1 5 6 7 12 13 14 15 16 17 18 19 
 20 
 8 
 1 4 5 8 9 20 21 24 
 24 
 1 2 3 4 5 6 7 8 9 10 11 12 
 13 14 15 16 17 18 19 20 21 22 23 24 
 19 
 1 3 5 6 7 8 9 10 11 12 14 15 
 16 17 18 19 20 21 24 
 10 
 1 2 3 4 9 11 17 19 21 23 
 17 
 1 2 3 4 5 7 8 10 11 12 15 17 
 18 19 21 23 24 
 19 
 1 3 4 5 6 7 8 9 10 11 12 13 
 14 16 17 20 22 23 24 
 5 
 3 9 17 19 23 
 16 
 1 2 4 6 7 8 10 12 13 15 16 17 
 19 20 21 23 
 20 
 1 2 3 4 5 6 7 9 12 13 14 15 
 16 17 18 19 20 21 22 23 
 16 
 1 3 4 5 6 9 10 11 12 13 15 16 
 21 22 23 24 
 23 
 1 2 3 5 6 7 8 9 10 11 12 13 
 14 15 16 17 18 19 20 21 22 23 24 
 3 
 3 5 12 
 18 
 1 2 3 6 8 9 10 11 12 13 14 16 
 17 18 19 20 23 24 
 8 
 4 7 10 12 13 19 20 24 
 15 
 3 4 6 8 9 10 12 14 15 18 19 20 
 21 22 24 
 13 
 1 5 6 7 8 9 10 12 13 15 17 18 
 23 
 5 
 13 14 20 21 24 
 17 
 2 3 5 6 8 9 10 11 12 13 14 15 
 16 18 19 20 22 
 9 
 2 5 6 7 9 10 14 16 21 
 22 
 1 2 3 4 5 6 7 8 9 10 11 12 
 13 14 15 17 18 19 20 22 23 24 
 7 
 1 3 10 13 15 19 23 
 17 
 2 3 4 5 6 7 10 13 14 15 16 17 
 19 20 21 22 23 
 14 
 1 2 3 4 5 6 7 8 11 14 17 19 
 20 23 
 23 
 1 2 3 4 5 6 7 8 9 10 11 12 
 13 14 15 17 18 19 20 21 22 23 24 
 13 
 1 2 3 5 7 9 10 11 16 17 21 22 
 23 
 18 
 1 2 3 4 5 7 8 9 11 12 13 14 
 15 16 19 21 22 23 
 16 
 2 4 5 7 8 9 10 11 13 14 15 16 
 19 21 22 23 
 15 
 4 5 6 7 8 10 11 12 13 15 17 18 
 19 20 22 
 14 
 3 5 6 7 8 9 13 14 17 18 19 20 
 21 22 
 3 
 7 19 22 
 2 
 13 15 
 21 
 1 2 3 5 6 7 8 10 11 12 13 14 
 15 16 17 18 19 20 21 22 23 
 24 
 1 2 3 4 5 6 7 8 9 10 11 12 
 13 14 15 16 17 18 19 20 21 22 23 24 
 12 
 1 2 6 9 10 12 14 18 19 22 23 24 
 16 
 1 3 4 5 7 9 10 14 15 16 17 18 
 20 21 22 24 
 24 
 1 2 3 4 5 6 7 8 9 10 11 12 
 13 14 15 16 17 18 19 20 21 22 23 24 
 6 
 15 16 17 19 20 23 
 7 
 5 9 11 12 13 15 16 
 12 
 1 3 4 5 6 7 11 12 15 16 19 20 
 13 
 2 3 5 8 10 13 14 16 17 18 19 21 
 22 
 6 
 3 5 10 12 13 19 
 21 
 1 2 3 4 5 8 9 10 11 13 14 15 
 16 17 18 19 20 21 22 23 24 
 19 
 1 2 3 4 5 6 7 10 11 13 16 17 
 18 19 20 21 22 23 24 
 6 
 8 9 10 11 14 24 
 14 
 1 3 4 5 8 13 14 15 16 18 19 21 
 22 23 
 16 
 1 3 4 6 10 12 13 14 15 16 17 18 
 19 20 21 24 
 7 
 6 11 14 17 21 22 23 
 